\ This file has been generated by DOcplex
\ ENCODING=ISO-8859-1
\Problem name: Manuver Model

Minimize
 obj: PriceProv1 + PriceProv2 + PriceProv3 + PriceProv4 + PriceProv5
Subject To
 c0_vm_allocated: vm1 = 1 <-> C1_VM1 + C2_VM1 + C3_VM1 + C4_VM1 + C5_VM1 >= 1
 c1_vm_allocated: vm2 = 1 <-> C1_VM2 + C2_VM2 + C3_VM2 + C4_VM2 + C5_VM2 >= 1
 c2_vm_allocated: vm3 = 1 <-> C1_VM3 + C2_VM3 + C3_VM3 + C4_VM3 + C5_VM3 >= 1
 c3_vm_allocated: vm4 = 1 <-> C1_VM4 + C2_VM4 + C3_VM4 + C4_VM4 + C5_VM4 >= 1
 c4_vm_allocated: vm5 = 1 <-> C1_VM5 + C2_VM5 + C3_VM5 + C4_VM5 + C5_VM5 >= 1
 c0_vm_free_price_0: vm1 = 0 -> PriceProv1 = 0
 c1_vm_free_price_0: vm2 = 0 -> PriceProv2 = 0
 c2_vm_free_price_0: vm3 = 0 -> PriceProv3 = 0
 c3_vm_free_price_0: vm4 = 0 -> PriceProv4 = 0
 c4_vm_free_price_0: vm5 = 0 -> PriceProv5 = 0
 a_c_fix_component: C1_VM1 = 1
 a_c_fix_component#1: C2_VM1 = 0
 a_c_fix_component#2: C3_VM1 = 0
 a_c_fix_component#3: C4_VM1 = 0
 a_c_fix_component#4: C5_VM1 = 0
 a_c_fix_component#5: C5_VM2 = 1
 a_c_fix_component#6: C1_VM2 = 0
 a_c_fix_component#7: C3_VM2 = 0
 a_c_fix_component#8: C4_VM2 = 0
 a_c_fix_component#9: C3_VM3 = 1
 a_c_fix_component#10: C1_VM3 = 0
 a_c_fix_component#11: C5_VM3 = 0
 price_order: PriceProv4 - PriceProv5 >= 0
 lc11: vmload_VM3_combined = 1 <-> PriceProv4 - PriceProv5 = 0
 lc12: vmload_VM3_combined = 1 -> C1_VM4 + C2_VM4 + C3_VM4 + C4_VM4 + C5_VM4
       - C1_VM5 - C2_VM5 - C3_VM5 - C4_VM5 - C5_VM5 >= 0
 c_comp_conflict: C1_VM1 + C2_VM1 <= 1
 c_comp_conflict#14: C1_VM1 + C3_VM1 <= 1
 c_comp_conflict#15: C1_VM1 + C4_VM1 <= 1
 c_comp_conflict#16: C1_VM1 + C5_VM1 <= 1
 c_comp_conflict#17: C1_VM2 + C2_VM2 <= 1
 c_comp_conflict#18: C1_VM2 + C3_VM2 <= 1
 c_comp_conflict#19: C1_VM2 + C4_VM2 <= 1
 c_comp_conflict#20: C1_VM2 + C5_VM2 <= 1
 c_comp_conflict#21: C1_VM3 + C2_VM3 <= 1
 c_comp_conflict#22: C1_VM3 + C3_VM3 <= 1
 c_comp_conflict#23: C1_VM3 + C4_VM3 <= 1
 c_comp_conflict#24: C1_VM3 + C5_VM3 <= 1
 c_comp_conflict#25: C1_VM4 + C2_VM4 <= 1
 c_comp_conflict#26: C1_VM4 + C3_VM4 <= 1
 c_comp_conflict#27: C1_VM4 + C4_VM4 <= 1
 c_comp_conflict#28: C1_VM4 + C5_VM4 <= 1
 c_comp_conflict#29: C1_VM5 + C2_VM5 <= 1
 c_comp_conflict#30: C1_VM5 + C3_VM5 <= 1
 c_comp_conflict#31: C1_VM5 + C4_VM5 <= 1
 c_comp_conflict#32: C1_VM5 + C5_VM5 <= 1
 c_comp_conflict#33: C3_VM1 + C5_VM1 <= 1
 c_comp_conflict#34: C4_VM1 + C5_VM1 <= 1
 c_comp_conflict#35: C3_VM2 + C5_VM2 <= 1
 c_comp_conflict#36: C4_VM2 + C5_VM2 <= 1
 c_comp_conflict#37: C3_VM3 + C5_VM3 <= 1
 c_comp_conflict#38: C4_VM3 + C5_VM3 <= 1
 c_comp_conflict#39: C3_VM4 + C5_VM4 <= 1
 c_comp_conflict#40: C4_VM4 + C5_VM4 <= 1
 c_comp_conflict#41: C3_VM5 + C5_VM5 <= 1
 c_comp_conflict#42: C4_VM5 + C5_VM5 <= 1
 c_upper_lower_bound: C1_VM1 + C1_VM2 + C1_VM3 + C1_VM4 + C1_VM5 = 1
 c_upper_lower_bound#44: C5_VM1 + C5_VM2 + C5_VM3 + C5_VM4 + C5_VM5 = 1
 c_upper_lower_bound#45: C1_VM1 + C1_VM2 + C1_VM3 + C1_VM4 + C1_VM5 >= 1
 c_upper_lower_bound#46: C2_VM1 + C2_VM2 + C2_VM3 + C2_VM4 + C2_VM5 >= 1
 c_upper_lower_bound#47: C3_VM1 + C3_VM2 + C3_VM3 + C3_VM4 + C3_VM5 >= 1
 c_upper_lower_bound#48: C4_VM1 + C4_VM2 + C4_VM3 + C4_VM4 + C4_VM5 >= 1
 c_upper_lower_bound#49: C5_VM1 + C5_VM2 + C5_VM3 + C5_VM4 + C5_VM5 >= 1
 c_hard_cpu: 4 C1_VM1 + 2 C2_VM1 + 4 C3_VM1 + 2 C4_VM1 + 4 C5_VM1 - ProcProv1
              <= 0
 c_hard_mem: 4096 C1_VM1 + 2048 C2_VM1 + 4096 C3_VM1 + 512 C4_VM1 + 2048 C5_VM1
             - MemProv1 <= 0
 c_hard_storage: 1024 C1_VM1 + 512 C2_VM1 + 512 C3_VM1 + 2000 C4_VM1
                 + 500 C5_VM1 - StorageProv1 <= 0
 c_hard_cpu#53: 4 C1_VM2 + 2 C2_VM2 + 4 C3_VM2 + 2 C4_VM2 + 4 C5_VM2 - ProcProv2
                 <= 0
 c_hard_mem#54: 4096 C1_VM2 + 2048 C2_VM2 + 4096 C3_VM2 + 512 C4_VM2
                + 2048 C5_VM2 - MemProv2 <= 0
 c_hard_storage#55: 1024 C1_VM2 + 512 C2_VM2 + 512 C3_VM2 + 2000 C4_VM2
                    + 500 C5_VM2 - StorageProv2 <= 0
 c_hard_cpu#56: 4 C1_VM3 + 2 C2_VM3 + 4 C3_VM3 + 2 C4_VM3 + 4 C5_VM3 - ProcProv3
                 <= 0
 c_hard_mem#57: 4096 C1_VM3 + 2048 C2_VM3 + 4096 C3_VM3 + 512 C4_VM3
                + 2048 C5_VM3 - MemProv3 <= 0
 c_hard_storage#58: 1024 C1_VM3 + 512 C2_VM3 + 512 C3_VM3 + 2000 C4_VM3
                    + 500 C5_VM3 - StorageProv3 <= 0
 c_hard_cpu#59: 4 C1_VM4 + 2 C2_VM4 + 4 C3_VM4 + 2 C4_VM4 + 4 C5_VM4 - ProcProv4
                 <= 0
 c_hard_mem#60: 4096 C1_VM4 + 2048 C2_VM4 + 4096 C3_VM4 + 512 C4_VM4
                + 2048 C5_VM4 - MemProv4 <= 0
 c_hard_storage#61: 1024 C1_VM4 + 512 C2_VM4 + 512 C3_VM4 + 2000 C4_VM4
                    + 500 C5_VM4 - StorageProv4 <= 0
 c_hard_cpu#62: 4 C1_VM5 + 2 C2_VM5 + 4 C3_VM5 + 2 C4_VM5 + 4 C5_VM5 - ProcProv5
                 <= 0
 c_hard_mem#63: 4096 C1_VM5 + 2048 C2_VM5 + 4096 C3_VM5 + 512 C4_VM5
                + 2048 C5_VM5 - MemProv5 <= 0
 c_hard_storage#64: 1024 C1_VM5 + 512 C2_VM5 + 512 C3_VM5 + 2000 C4_VM5
                    + 500 C5_VM5 - StorageProv5 <= 0
 lc13: aux_hard1 = 1 <-> vmType1 = 1
 c_order_vm_price: aux_hard1 = 1 -> PriceProv1 = 8403
 c_order_vm_cpu: aux_hard1 = 1 -> ProcProv1 = 64
 c_order_vm_memory: aux_hard1 = 1 -> MemProv1 = 976000
 c_order_vm_storage: aux_hard1 = 1 -> StorageProv1 = 1000
 lc18: aux_hard2 = 1 <-> vmType1 = 2
 c_order_vm_price#18: aux_hard2 = 1 -> PriceProv1 = 9152
 c_order_vm_cpu#19: aux_hard2 = 1 -> ProcProv1 = 64
 c_order_vm_memory#20: aux_hard2 = 1 -> MemProv1 = 488000
 c_order_vm_storage#21: aux_hard2 = 1 -> StorageProv1 = 8000
 lc23: aux_hard3 = 1 <-> vmType1 = 3
 c_order_vm_price#23: aux_hard3 = 1 -> PriceProv1 = 16000
 c_order_vm_cpu#24: aux_hard3 = 1 -> ProcProv1 = 64
 c_order_vm_memory#25: aux_hard3 = 1 -> MemProv1 = 1952
 c_order_vm_storage#26: aux_hard3 = 1 -> StorageProv1 = 1000
 lc28: aux_hard4 = 1 <-> vmType1 = 4
 c_order_vm_price#28: aux_hard4 = 1 -> PriceProv1 = 4105
 c_order_vm_cpu#29: aux_hard4 = 1 -> ProcProv1 = 32
 c_order_vm_memory#30: aux_hard4 = 1 -> MemProv1 = 244000
 c_order_vm_storage#31: aux_hard4 = 1 -> StorageProv1 = 2000
 lc33: aux_hard5 = 1 <-> vmType1 = 5
 c_order_vm_price#33: aux_hard5 = 1 -> PriceProv1 = 4576
 c_order_vm_cpu#34: aux_hard5 = 1 -> ProcProv1 = 32
 c_order_vm_memory#35: aux_hard5 = 1 -> MemProv1 = 244000
 c_order_vm_storage#36: aux_hard5 = 1 -> StorageProv1 = 4000
 lc38: aux_hard6 = 1 <-> vmType1 = 6
 c_order_vm_price#38: aux_hard6 = 1 -> PriceProv1 = 1373
 c_order_vm_cpu#39: aux_hard6 = 1 -> ProcProv1 = 16
 c_order_vm_memory#40: aux_hard6 = 1 -> MemProv1 = 122000
 c_order_vm_storage#41: aux_hard6 = 1 -> StorageProv1 = 2000
 lc43: aux_hard7 = 1 <-> vmType1 = 7
 c_order_vm_price#43: aux_hard7 = 1 -> PriceProv1 = 1430
 c_order_vm_cpu#44: aux_hard7 = 1 -> ProcProv1 = 16
 c_order_vm_memory#45: aux_hard7 = 1 -> MemProv1 = 30000
 c_order_vm_storage#46: aux_hard7 = 1 -> StorageProv1 = 2000
 lc48: aux_hard8 = 1 <-> vmType1 = 8
 c_order_vm_price#48: aux_hard8 = 1 -> PriceProv1 = 5400
 c_order_vm_cpu#49: aux_hard8 = 1 -> ProcProv1 = 17
 c_order_vm_memory#50: aux_hard8 = 1 -> MemProv1 = 117000
 c_order_vm_storage#51: aux_hard8 = 1 -> StorageProv1 = 24000
 lc53: aux_hard9 = 1 <-> vmType1 = 9
 c_order_vm_price#53: aux_hard9 = 1 -> PriceProv1 = 3079
 c_order_vm_cpu#54: aux_hard9 = 1 -> ProcProv1 = 16
 c_order_vm_memory#55: aux_hard9 = 1 -> MemProv1 = 122000
 c_order_vm_storage#56: aux_hard9 = 1 -> StorageProv1 = 1000
 lc58: aux_hard10 = 1 <-> vmType1 = 10
 c_order_vm_price#58: aux_hard10 = 1 -> PriceProv1 = 1470
 c_order_vm_cpu#59: aux_hard10 = 1 -> ProcProv1 = 8
 c_order_vm_memory#60: aux_hard10 = 1 -> MemProv1 = 61000
 c_order_vm_storage#61: aux_hard10 = 1 -> StorageProv1 = 6000
 lc63: aux_hard11 = 1 <-> vmType1 = 11
 c_order_vm_price#63: aux_hard11 = 1 -> PriceProv1 = 1301
 c_order_vm_cpu#64: aux_hard11 = 1 -> ProcProv1 = 8
 c_order_vm_memory#65: aux_hard11 = 1 -> MemProv1 = 68400
 c_order_vm_storage#66: aux_hard11 = 1 -> StorageProv1 = 2000
 lc68: aux_hard12 = 1 <-> vmType1 = 12
 c_order_vm_price#68: aux_hard12 = 1 -> PriceProv1 = 1288
 c_order_vm_cpu#69: aux_hard12 = 1 -> ProcProv1 = 8
 c_order_vm_memory#70: aux_hard12 = 1 -> MemProv1 = 68400
 c_order_vm_storage#71: aux_hard12 = 1 -> StorageProv1 = 2000
 lc73: aux_hard13 = 1 <-> vmType1 = 13
 c_order_vm_price#73: aux_hard13 = 1 -> PriceProv1 = 402
 c_order_vm_cpu#74: aux_hard13 = 1 -> ProcProv1 = 4
 c_order_vm_memory#75: aux_hard13 = 1 -> MemProv1 = 15000
 c_order_vm_storage#76: aux_hard13 = 1 -> StorageProv1 = 2000
 lc78: aux_hard14 = 1 <-> vmType1 = 14
 c_order_vm_price#78: aux_hard14 = 1 -> PriceProv1 = 827
 c_order_vm_cpu#79: aux_hard14 = 1 -> ProcProv1 = 4
 c_order_vm_memory#80: aux_hard14 = 1 -> MemProv1 = 30500
 c_order_vm_storage#81: aux_hard14 = 1 -> StorageProv1 = 3000
 lc83: aux_hard15 = 1 <-> vmType1 = 15
 c_order_vm_price#83: aux_hard15 = 1 -> PriceProv1 = 379
 c_order_vm_cpu#84: aux_hard15 = 1 -> ProcProv1 = 4
 c_order_vm_memory#85: aux_hard15 = 1 -> MemProv1 = 30500
 c_order_vm_storage#86: aux_hard15 = 1 -> StorageProv1 = 1000
 lc88: aux_hard16 = 1 <-> vmType1 = 16
 c_order_vm_price#88: aux_hard16 = 1 -> PriceProv1 = 146
 c_order_vm_cpu#89: aux_hard16 = 1 -> ProcProv1 = 2
 c_order_vm_memory#90: aux_hard16 = 1 -> MemProv1 = 7500
 c_order_vm_storage#91: aux_hard16 = 1 -> StorageProv1 = 1000
 lc93: aux_hard17 = 1 <-> vmType1 = 17
 c_order_vm_price#93: aux_hard17 = 1 -> PriceProv1 = 128
 c_order_vm_cpu#94: aux_hard17 = 1 -> ProcProv1 = 2
 c_order_vm_memory#95: aux_hard17 = 1 -> MemProv1 = 3750
 c_order_vm_storage#96: aux_hard17 = 1 -> StorageProv1 = 2000
 lc98: aux_hard18 = 1 <-> vmType1 = 18
 c_order_vm_price#98: aux_hard18 = 1 -> PriceProv1 = 58
 c_order_vm_cpu#99: aux_hard18 = 1 -> ProcProv1 = 1
 c_order_vm_memory#100: aux_hard18 = 1 -> MemProv1 = 1700
 c_order_vm_storage#101: aux_hard18 = 1 -> StorageProv1 = 1000
 lc103: aux_hard19 = 1 <-> vmType1 = 19
 c_order_vm_price#103: aux_hard19 = 1 -> PriceProv1 = 93
 c_order_vm_cpu#104: aux_hard19 = 1 -> ProcProv1 = 1
 c_order_vm_memory#105: aux_hard19 = 1 -> MemProv1 = 3750
 c_order_vm_storage#106: aux_hard19 = 1 -> StorageProv1 = 1000
 lc108: aux_hard20 = 1 <-> vmType1 = 20
 c_order_vm_price#108: aux_hard20 = 1 -> PriceProv1 = 98
 c_order_vm_cpu#109: aux_hard20 = 1 -> ProcProv1 = 1
 c_order_vm_memory#110: aux_hard20 = 1 -> MemProv1 = 3750
 c_order_vm_storage#111: aux_hard20 = 1 -> StorageProv1 = 1000
 lc113: vm1 = 1 -> vmType1 >= 1
 lc114: aux_hard21 = 1 <-> vmType2 = 1
 c_order_vm_price#114: aux_hard21 = 1 -> PriceProv2 = 8403
 c_order_vm_cpu#115: aux_hard21 = 1 -> ProcProv2 = 64
 c_order_vm_memory#116: aux_hard21 = 1 -> MemProv2 = 976000
 c_order_vm_storage#117: aux_hard21 = 1 -> StorageProv2 = 1000
 lc119: aux_hard22 = 1 <-> vmType2 = 2
 c_order_vm_price#119: aux_hard22 = 1 -> PriceProv2 = 9152
 c_order_vm_cpu#120: aux_hard22 = 1 -> ProcProv2 = 64
 c_order_vm_memory#121: aux_hard22 = 1 -> MemProv2 = 488000
 c_order_vm_storage#122: aux_hard22 = 1 -> StorageProv2 = 8000
 lc124: aux_hard23 = 1 <-> vmType2 = 3
 c_order_vm_price#124: aux_hard23 = 1 -> PriceProv2 = 16000
 c_order_vm_cpu#125: aux_hard23 = 1 -> ProcProv2 = 64
 c_order_vm_memory#126: aux_hard23 = 1 -> MemProv2 = 1952
 c_order_vm_storage#127: aux_hard23 = 1 -> StorageProv2 = 1000
 lc129: aux_hard24 = 1 <-> vmType2 = 4
 c_order_vm_price#129: aux_hard24 = 1 -> PriceProv2 = 4105
 c_order_vm_cpu#130: aux_hard24 = 1 -> ProcProv2 = 32
 c_order_vm_memory#131: aux_hard24 = 1 -> MemProv2 = 244000
 c_order_vm_storage#132: aux_hard24 = 1 -> StorageProv2 = 2000
 lc134: aux_hard25 = 1 <-> vmType2 = 5
 c_order_vm_price#134: aux_hard25 = 1 -> PriceProv2 = 4576
 c_order_vm_cpu#135: aux_hard25 = 1 -> ProcProv2 = 32
 c_order_vm_memory#136: aux_hard25 = 1 -> MemProv2 = 244000
 c_order_vm_storage#137: aux_hard25 = 1 -> StorageProv2 = 4000
 lc139: aux_hard26 = 1 <-> vmType2 = 6
 c_order_vm_price#139: aux_hard26 = 1 -> PriceProv2 = 1373
 c_order_vm_cpu#140: aux_hard26 = 1 -> ProcProv2 = 16
 c_order_vm_memory#141: aux_hard26 = 1 -> MemProv2 = 122000
 c_order_vm_storage#142: aux_hard26 = 1 -> StorageProv2 = 2000
 lc144: aux_hard27 = 1 <-> vmType2 = 7
 c_order_vm_price#144: aux_hard27 = 1 -> PriceProv2 = 1430
 c_order_vm_cpu#145: aux_hard27 = 1 -> ProcProv2 = 16
 c_order_vm_memory#146: aux_hard27 = 1 -> MemProv2 = 30000
 c_order_vm_storage#147: aux_hard27 = 1 -> StorageProv2 = 2000
 lc149: aux_hard28 = 1 <-> vmType2 = 8
 c_order_vm_price#149: aux_hard28 = 1 -> PriceProv2 = 5400
 c_order_vm_cpu#150: aux_hard28 = 1 -> ProcProv2 = 17
 c_order_vm_memory#151: aux_hard28 = 1 -> MemProv2 = 117000
 c_order_vm_storage#152: aux_hard28 = 1 -> StorageProv2 = 24000
 lc154: aux_hard29 = 1 <-> vmType2 = 9
 c_order_vm_price#154: aux_hard29 = 1 -> PriceProv2 = 3079
 c_order_vm_cpu#155: aux_hard29 = 1 -> ProcProv2 = 16
 c_order_vm_memory#156: aux_hard29 = 1 -> MemProv2 = 122000
 c_order_vm_storage#157: aux_hard29 = 1 -> StorageProv2 = 1000
 lc159: aux_hard30 = 1 <-> vmType2 = 10
 c_order_vm_price#159: aux_hard30 = 1 -> PriceProv2 = 1470
 c_order_vm_cpu#160: aux_hard30 = 1 -> ProcProv2 = 8
 c_order_vm_memory#161: aux_hard30 = 1 -> MemProv2 = 61000
 c_order_vm_storage#162: aux_hard30 = 1 -> StorageProv2 = 6000
 lc164: aux_hard31 = 1 <-> vmType2 = 11
 c_order_vm_price#164: aux_hard31 = 1 -> PriceProv2 = 1301
 c_order_vm_cpu#165: aux_hard31 = 1 -> ProcProv2 = 8
 c_order_vm_memory#166: aux_hard31 = 1 -> MemProv2 = 68400
 c_order_vm_storage#167: aux_hard31 = 1 -> StorageProv2 = 2000
 lc169: aux_hard32 = 1 <-> vmType2 = 12
 c_order_vm_price#169: aux_hard32 = 1 -> PriceProv2 = 1288
 c_order_vm_cpu#170: aux_hard32 = 1 -> ProcProv2 = 8
 c_order_vm_memory#171: aux_hard32 = 1 -> MemProv2 = 68400
 c_order_vm_storage#172: aux_hard32 = 1 -> StorageProv2 = 2000
 lc174: aux_hard33 = 1 <-> vmType2 = 13
 c_order_vm_price#174: aux_hard33 = 1 -> PriceProv2 = 402
 c_order_vm_cpu#175: aux_hard33 = 1 -> ProcProv2 = 4
 c_order_vm_memory#176: aux_hard33 = 1 -> MemProv2 = 15000
 c_order_vm_storage#177: aux_hard33 = 1 -> StorageProv2 = 2000
 lc179: aux_hard34 = 1 <-> vmType2 = 14
 c_order_vm_price#179: aux_hard34 = 1 -> PriceProv2 = 827
 c_order_vm_cpu#180: aux_hard34 = 1 -> ProcProv2 = 4
 c_order_vm_memory#181: aux_hard34 = 1 -> MemProv2 = 30500
 c_order_vm_storage#182: aux_hard34 = 1 -> StorageProv2 = 3000
 lc184: aux_hard35 = 1 <-> vmType2 = 15
 c_order_vm_price#184: aux_hard35 = 1 -> PriceProv2 = 379
 c_order_vm_cpu#185: aux_hard35 = 1 -> ProcProv2 = 4
 c_order_vm_memory#186: aux_hard35 = 1 -> MemProv2 = 30500
 c_order_vm_storage#187: aux_hard35 = 1 -> StorageProv2 = 1000
 lc189: aux_hard36 = 1 <-> vmType2 = 16
 c_order_vm_price#189: aux_hard36 = 1 -> PriceProv2 = 146
 c_order_vm_cpu#190: aux_hard36 = 1 -> ProcProv2 = 2
 c_order_vm_memory#191: aux_hard36 = 1 -> MemProv2 = 7500
 c_order_vm_storage#192: aux_hard36 = 1 -> StorageProv2 = 1000
 lc194: aux_hard37 = 1 <-> vmType2 = 17
 c_order_vm_price#194: aux_hard37 = 1 -> PriceProv2 = 128
 c_order_vm_cpu#195: aux_hard37 = 1 -> ProcProv2 = 2
 c_order_vm_memory#196: aux_hard37 = 1 -> MemProv2 = 3750
 c_order_vm_storage#197: aux_hard37 = 1 -> StorageProv2 = 2000
 lc199: aux_hard38 = 1 <-> vmType2 = 18
 c_order_vm_price#199: aux_hard38 = 1 -> PriceProv2 = 58
 c_order_vm_cpu#200: aux_hard38 = 1 -> ProcProv2 = 1
 c_order_vm_memory#201: aux_hard38 = 1 -> MemProv2 = 1700
 c_order_vm_storage#202: aux_hard38 = 1 -> StorageProv2 = 1000
 lc204: aux_hard39 = 1 <-> vmType2 = 19
 c_order_vm_price#204: aux_hard39 = 1 -> PriceProv2 = 93
 c_order_vm_cpu#205: aux_hard39 = 1 -> ProcProv2 = 1
 c_order_vm_memory#206: aux_hard39 = 1 -> MemProv2 = 3750
 c_order_vm_storage#207: aux_hard39 = 1 -> StorageProv2 = 1000
 lc209: aux_hard40 = 1 <-> vmType2 = 20
 c_order_vm_price#209: aux_hard40 = 1 -> PriceProv2 = 98
 c_order_vm_cpu#210: aux_hard40 = 1 -> ProcProv2 = 1
 c_order_vm_memory#211: aux_hard40 = 1 -> MemProv2 = 3750
 c_order_vm_storage#212: aux_hard40 = 1 -> StorageProv2 = 1000
 lc214: vm2 = 1 -> vmType2 >= 1
 lc215: aux_hard41 = 1 <-> vmType3 = 1
 c_order_vm_price#215: aux_hard41 = 1 -> PriceProv3 = 8403
 c_order_vm_cpu#216: aux_hard41 = 1 -> ProcProv3 = 64
 c_order_vm_memory#217: aux_hard41 = 1 -> MemProv3 = 976000
 c_order_vm_storage#218: aux_hard41 = 1 -> StorageProv3 = 1000
 lc220: aux_hard42 = 1 <-> vmType3 = 2
 c_order_vm_price#220: aux_hard42 = 1 -> PriceProv3 = 9152
 c_order_vm_cpu#221: aux_hard42 = 1 -> ProcProv3 = 64
 c_order_vm_memory#222: aux_hard42 = 1 -> MemProv3 = 488000
 c_order_vm_storage#223: aux_hard42 = 1 -> StorageProv3 = 8000
 lc225: aux_hard43 = 1 <-> vmType3 = 3
 c_order_vm_price#225: aux_hard43 = 1 -> PriceProv3 = 16000
 c_order_vm_cpu#226: aux_hard43 = 1 -> ProcProv3 = 64
 c_order_vm_memory#227: aux_hard43 = 1 -> MemProv3 = 1952
 c_order_vm_storage#228: aux_hard43 = 1 -> StorageProv3 = 1000
 lc230: aux_hard44 = 1 <-> vmType3 = 4
 c_order_vm_price#230: aux_hard44 = 1 -> PriceProv3 = 4105
 c_order_vm_cpu#231: aux_hard44 = 1 -> ProcProv3 = 32
 c_order_vm_memory#232: aux_hard44 = 1 -> MemProv3 = 244000
 c_order_vm_storage#233: aux_hard44 = 1 -> StorageProv3 = 2000
 lc235: aux_hard45 = 1 <-> vmType3 = 5
 c_order_vm_price#235: aux_hard45 = 1 -> PriceProv3 = 4576
 c_order_vm_cpu#236: aux_hard45 = 1 -> ProcProv3 = 32
 c_order_vm_memory#237: aux_hard45 = 1 -> MemProv3 = 244000
 c_order_vm_storage#238: aux_hard45 = 1 -> StorageProv3 = 4000
 lc240: aux_hard46 = 1 <-> vmType3 = 6
 c_order_vm_price#240: aux_hard46 = 1 -> PriceProv3 = 1373
 c_order_vm_cpu#241: aux_hard46 = 1 -> ProcProv3 = 16
 c_order_vm_memory#242: aux_hard46 = 1 -> MemProv3 = 122000
 c_order_vm_storage#243: aux_hard46 = 1 -> StorageProv3 = 2000
 lc245: aux_hard47 = 1 <-> vmType3 = 7
 c_order_vm_price#245: aux_hard47 = 1 -> PriceProv3 = 1430
 c_order_vm_cpu#246: aux_hard47 = 1 -> ProcProv3 = 16
 c_order_vm_memory#247: aux_hard47 = 1 -> MemProv3 = 30000
 c_order_vm_storage#248: aux_hard47 = 1 -> StorageProv3 = 2000
 lc250: aux_hard48 = 1 <-> vmType3 = 8
 c_order_vm_price#250: aux_hard48 = 1 -> PriceProv3 = 5400
 c_order_vm_cpu#251: aux_hard48 = 1 -> ProcProv3 = 17
 c_order_vm_memory#252: aux_hard48 = 1 -> MemProv3 = 117000
 c_order_vm_storage#253: aux_hard48 = 1 -> StorageProv3 = 24000
 lc255: aux_hard49 = 1 <-> vmType3 = 9
 c_order_vm_price#255: aux_hard49 = 1 -> PriceProv3 = 3079
 c_order_vm_cpu#256: aux_hard49 = 1 -> ProcProv3 = 16
 c_order_vm_memory#257: aux_hard49 = 1 -> MemProv3 = 122000
 c_order_vm_storage#258: aux_hard49 = 1 -> StorageProv3 = 1000
 lc260: aux_hard50 = 1 <-> vmType3 = 10
 c_order_vm_price#260: aux_hard50 = 1 -> PriceProv3 = 1470
 c_order_vm_cpu#261: aux_hard50 = 1 -> ProcProv3 = 8
 c_order_vm_memory#262: aux_hard50 = 1 -> MemProv3 = 61000
 c_order_vm_storage#263: aux_hard50 = 1 -> StorageProv3 = 6000
 lc265: aux_hard51 = 1 <-> vmType3 = 11
 c_order_vm_price#265: aux_hard51 = 1 -> PriceProv3 = 1301
 c_order_vm_cpu#266: aux_hard51 = 1 -> ProcProv3 = 8
 c_order_vm_memory#267: aux_hard51 = 1 -> MemProv3 = 68400
 c_order_vm_storage#268: aux_hard51 = 1 -> StorageProv3 = 2000
 lc270: aux_hard52 = 1 <-> vmType3 = 12
 c_order_vm_price#270: aux_hard52 = 1 -> PriceProv3 = 1288
 c_order_vm_cpu#271: aux_hard52 = 1 -> ProcProv3 = 8
 c_order_vm_memory#272: aux_hard52 = 1 -> MemProv3 = 68400
 c_order_vm_storage#273: aux_hard52 = 1 -> StorageProv3 = 2000
 lc275: aux_hard53 = 1 <-> vmType3 = 13
 c_order_vm_price#275: aux_hard53 = 1 -> PriceProv3 = 402
 c_order_vm_cpu#276: aux_hard53 = 1 -> ProcProv3 = 4
 c_order_vm_memory#277: aux_hard53 = 1 -> MemProv3 = 15000
 c_order_vm_storage#278: aux_hard53 = 1 -> StorageProv3 = 2000
 lc280: aux_hard54 = 1 <-> vmType3 = 14
 c_order_vm_price#280: aux_hard54 = 1 -> PriceProv3 = 827
 c_order_vm_cpu#281: aux_hard54 = 1 -> ProcProv3 = 4
 c_order_vm_memory#282: aux_hard54 = 1 -> MemProv3 = 30500
 c_order_vm_storage#283: aux_hard54 = 1 -> StorageProv3 = 3000
 lc285: aux_hard55 = 1 <-> vmType3 = 15
 c_order_vm_price#285: aux_hard55 = 1 -> PriceProv3 = 379
 c_order_vm_cpu#286: aux_hard55 = 1 -> ProcProv3 = 4
 c_order_vm_memory#287: aux_hard55 = 1 -> MemProv3 = 30500
 c_order_vm_storage#288: aux_hard55 = 1 -> StorageProv3 = 1000
 lc290: aux_hard56 = 1 <-> vmType3 = 16
 c_order_vm_price#290: aux_hard56 = 1 -> PriceProv3 = 146
 c_order_vm_cpu#291: aux_hard56 = 1 -> ProcProv3 = 2
 c_order_vm_memory#292: aux_hard56 = 1 -> MemProv3 = 7500
 c_order_vm_storage#293: aux_hard56 = 1 -> StorageProv3 = 1000
 lc295: aux_hard57 = 1 <-> vmType3 = 17
 c_order_vm_price#295: aux_hard57 = 1 -> PriceProv3 = 128
 c_order_vm_cpu#296: aux_hard57 = 1 -> ProcProv3 = 2
 c_order_vm_memory#297: aux_hard57 = 1 -> MemProv3 = 3750
 c_order_vm_storage#298: aux_hard57 = 1 -> StorageProv3 = 2000
 lc300: aux_hard58 = 1 <-> vmType3 = 18
 c_order_vm_price#300: aux_hard58 = 1 -> PriceProv3 = 58
 c_order_vm_cpu#301: aux_hard58 = 1 -> ProcProv3 = 1
 c_order_vm_memory#302: aux_hard58 = 1 -> MemProv3 = 1700
 c_order_vm_storage#303: aux_hard58 = 1 -> StorageProv3 = 1000
 lc305: aux_hard59 = 1 <-> vmType3 = 19
 c_order_vm_price#305: aux_hard59 = 1 -> PriceProv3 = 93
 c_order_vm_cpu#306: aux_hard59 = 1 -> ProcProv3 = 1
 c_order_vm_memory#307: aux_hard59 = 1 -> MemProv3 = 3750
 c_order_vm_storage#308: aux_hard59 = 1 -> StorageProv3 = 1000
 lc310: aux_hard60 = 1 <-> vmType3 = 20
 c_order_vm_price#310: aux_hard60 = 1 -> PriceProv3 = 98
 c_order_vm_cpu#311: aux_hard60 = 1 -> ProcProv3 = 1
 c_order_vm_memory#312: aux_hard60 = 1 -> MemProv3 = 3750
 c_order_vm_storage#313: aux_hard60 = 1 -> StorageProv3 = 1000
 lc315: vm3 = 1 -> vmType3 >= 1
 lc316: aux_hard61 = 1 <-> vmType4 = 1
 c_order_vm_price#316: aux_hard61 = 1 -> PriceProv4 = 8403
 c_order_vm_cpu#317: aux_hard61 = 1 -> ProcProv4 = 64
 c_order_vm_memory#318: aux_hard61 = 1 -> MemProv4 = 976000
 c_order_vm_storage#319: aux_hard61 = 1 -> StorageProv4 = 1000
 lc321: aux_hard62 = 1 <-> vmType4 = 2
 c_order_vm_price#321: aux_hard62 = 1 -> PriceProv4 = 9152
 c_order_vm_cpu#322: aux_hard62 = 1 -> ProcProv4 = 64
 c_order_vm_memory#323: aux_hard62 = 1 -> MemProv4 = 488000
 c_order_vm_storage#324: aux_hard62 = 1 -> StorageProv4 = 8000
 lc326: aux_hard63 = 1 <-> vmType4 = 3
 c_order_vm_price#326: aux_hard63 = 1 -> PriceProv4 = 16000
 c_order_vm_cpu#327: aux_hard63 = 1 -> ProcProv4 = 64
 c_order_vm_memory#328: aux_hard63 = 1 -> MemProv4 = 1952
 c_order_vm_storage#329: aux_hard63 = 1 -> StorageProv4 = 1000
 lc331: aux_hard64 = 1 <-> vmType4 = 4
 c_order_vm_price#331: aux_hard64 = 1 -> PriceProv4 = 4105
 c_order_vm_cpu#332: aux_hard64 = 1 -> ProcProv4 = 32
 c_order_vm_memory#333: aux_hard64 = 1 -> MemProv4 = 244000
 c_order_vm_storage#334: aux_hard64 = 1 -> StorageProv4 = 2000
 lc336: aux_hard65 = 1 <-> vmType4 = 5
 c_order_vm_price#336: aux_hard65 = 1 -> PriceProv4 = 4576
 c_order_vm_cpu#337: aux_hard65 = 1 -> ProcProv4 = 32
 c_order_vm_memory#338: aux_hard65 = 1 -> MemProv4 = 244000
 c_order_vm_storage#339: aux_hard65 = 1 -> StorageProv4 = 4000
 lc341: aux_hard66 = 1 <-> vmType4 = 6
 c_order_vm_price#341: aux_hard66 = 1 -> PriceProv4 = 1373
 c_order_vm_cpu#342: aux_hard66 = 1 -> ProcProv4 = 16
 c_order_vm_memory#343: aux_hard66 = 1 -> MemProv4 = 122000
 c_order_vm_storage#344: aux_hard66 = 1 -> StorageProv4 = 2000
 lc346: aux_hard67 = 1 <-> vmType4 = 7
 c_order_vm_price#346: aux_hard67 = 1 -> PriceProv4 = 1430
 c_order_vm_cpu#347: aux_hard67 = 1 -> ProcProv4 = 16
 c_order_vm_memory#348: aux_hard67 = 1 -> MemProv4 = 30000
 c_order_vm_storage#349: aux_hard67 = 1 -> StorageProv4 = 2000
 lc351: aux_hard68 = 1 <-> vmType4 = 8
 c_order_vm_price#351: aux_hard68 = 1 -> PriceProv4 = 5400
 c_order_vm_cpu#352: aux_hard68 = 1 -> ProcProv4 = 17
 c_order_vm_memory#353: aux_hard68 = 1 -> MemProv4 = 117000
 c_order_vm_storage#354: aux_hard68 = 1 -> StorageProv4 = 24000
 lc356: aux_hard69 = 1 <-> vmType4 = 9
 c_order_vm_price#356: aux_hard69 = 1 -> PriceProv4 = 3079
 c_order_vm_cpu#357: aux_hard69 = 1 -> ProcProv4 = 16
 c_order_vm_memory#358: aux_hard69 = 1 -> MemProv4 = 122000
 c_order_vm_storage#359: aux_hard69 = 1 -> StorageProv4 = 1000
 lc361: aux_hard70 = 1 <-> vmType4 = 10
 c_order_vm_price#361: aux_hard70 = 1 -> PriceProv4 = 1470
 c_order_vm_cpu#362: aux_hard70 = 1 -> ProcProv4 = 8
 c_order_vm_memory#363: aux_hard70 = 1 -> MemProv4 = 61000
 c_order_vm_storage#364: aux_hard70 = 1 -> StorageProv4 = 6000
 lc366: aux_hard71 = 1 <-> vmType4 = 11
 c_order_vm_price#366: aux_hard71 = 1 -> PriceProv4 = 1301
 c_order_vm_cpu#367: aux_hard71 = 1 -> ProcProv4 = 8
 c_order_vm_memory#368: aux_hard71 = 1 -> MemProv4 = 68400
 c_order_vm_storage#369: aux_hard71 = 1 -> StorageProv4 = 2000
 lc371: aux_hard72 = 1 <-> vmType4 = 12
 c_order_vm_price#371: aux_hard72 = 1 -> PriceProv4 = 1288
 c_order_vm_cpu#372: aux_hard72 = 1 -> ProcProv4 = 8
 c_order_vm_memory#373: aux_hard72 = 1 -> MemProv4 = 68400
 c_order_vm_storage#374: aux_hard72 = 1 -> StorageProv4 = 2000
 lc376: aux_hard73 = 1 <-> vmType4 = 13
 c_order_vm_price#376: aux_hard73 = 1 -> PriceProv4 = 402
 c_order_vm_cpu#377: aux_hard73 = 1 -> ProcProv4 = 4
 c_order_vm_memory#378: aux_hard73 = 1 -> MemProv4 = 15000
 c_order_vm_storage#379: aux_hard73 = 1 -> StorageProv4 = 2000
 lc381: aux_hard74 = 1 <-> vmType4 = 14
 c_order_vm_price#381: aux_hard74 = 1 -> PriceProv4 = 827
 c_order_vm_cpu#382: aux_hard74 = 1 -> ProcProv4 = 4
 c_order_vm_memory#383: aux_hard74 = 1 -> MemProv4 = 30500
 c_order_vm_storage#384: aux_hard74 = 1 -> StorageProv4 = 3000
 lc386: aux_hard75 = 1 <-> vmType4 = 15
 c_order_vm_price#386: aux_hard75 = 1 -> PriceProv4 = 379
 c_order_vm_cpu#387: aux_hard75 = 1 -> ProcProv4 = 4
 c_order_vm_memory#388: aux_hard75 = 1 -> MemProv4 = 30500
 c_order_vm_storage#389: aux_hard75 = 1 -> StorageProv4 = 1000
 lc391: aux_hard76 = 1 <-> vmType4 = 16
 c_order_vm_price#391: aux_hard76 = 1 -> PriceProv4 = 146
 c_order_vm_cpu#392: aux_hard76 = 1 -> ProcProv4 = 2
 c_order_vm_memory#393: aux_hard76 = 1 -> MemProv4 = 7500
 c_order_vm_storage#394: aux_hard76 = 1 -> StorageProv4 = 1000
 lc396: aux_hard77 = 1 <-> vmType4 = 17
 c_order_vm_price#396: aux_hard77 = 1 -> PriceProv4 = 128
 c_order_vm_cpu#397: aux_hard77 = 1 -> ProcProv4 = 2
 c_order_vm_memory#398: aux_hard77 = 1 -> MemProv4 = 3750
 c_order_vm_storage#399: aux_hard77 = 1 -> StorageProv4 = 2000
 lc401: aux_hard78 = 1 <-> vmType4 = 18
 c_order_vm_price#401: aux_hard78 = 1 -> PriceProv4 = 58
 c_order_vm_cpu#402: aux_hard78 = 1 -> ProcProv4 = 1
 c_order_vm_memory#403: aux_hard78 = 1 -> MemProv4 = 1700
 c_order_vm_storage#404: aux_hard78 = 1 -> StorageProv4 = 1000
 lc406: aux_hard79 = 1 <-> vmType4 = 19
 c_order_vm_price#406: aux_hard79 = 1 -> PriceProv4 = 93
 c_order_vm_cpu#407: aux_hard79 = 1 -> ProcProv4 = 1
 c_order_vm_memory#408: aux_hard79 = 1 -> MemProv4 = 3750
 c_order_vm_storage#409: aux_hard79 = 1 -> StorageProv4 = 1000
 lc411: aux_hard80 = 1 <-> vmType4 = 20
 c_order_vm_price#411: aux_hard80 = 1 -> PriceProv4 = 98
 c_order_vm_cpu#412: aux_hard80 = 1 -> ProcProv4 = 1
 c_order_vm_memory#413: aux_hard80 = 1 -> MemProv4 = 3750
 c_order_vm_storage#414: aux_hard80 = 1 -> StorageProv4 = 1000
 lc416: vm4 = 1 -> vmType4 >= 1
 lc417: aux_hard81 = 1 <-> vmType5 = 1
 c_order_vm_price#417: aux_hard81 = 1 -> PriceProv5 = 8403
 c_order_vm_cpu#418: aux_hard81 = 1 -> ProcProv5 = 64
 c_order_vm_memory#419: aux_hard81 = 1 -> MemProv5 = 976000
 c_order_vm_storage#420: aux_hard81 = 1 -> StorageProv5 = 1000
 lc422: aux_hard82 = 1 <-> vmType5 = 2
 c_order_vm_price#422: aux_hard82 = 1 -> PriceProv5 = 9152
 c_order_vm_cpu#423: aux_hard82 = 1 -> ProcProv5 = 64
 c_order_vm_memory#424: aux_hard82 = 1 -> MemProv5 = 488000
 c_order_vm_storage#425: aux_hard82 = 1 -> StorageProv5 = 8000
 lc427: aux_hard83 = 1 <-> vmType5 = 3
 c_order_vm_price#427: aux_hard83 = 1 -> PriceProv5 = 16000
 c_order_vm_cpu#428: aux_hard83 = 1 -> ProcProv5 = 64
 c_order_vm_memory#429: aux_hard83 = 1 -> MemProv5 = 1952
 c_order_vm_storage#430: aux_hard83 = 1 -> StorageProv5 = 1000
 lc432: aux_hard84 = 1 <-> vmType5 = 4
 c_order_vm_price#432: aux_hard84 = 1 -> PriceProv5 = 4105
 c_order_vm_cpu#433: aux_hard84 = 1 -> ProcProv5 = 32
 c_order_vm_memory#434: aux_hard84 = 1 -> MemProv5 = 244000
 c_order_vm_storage#435: aux_hard84 = 1 -> StorageProv5 = 2000
 lc437: aux_hard85 = 1 <-> vmType5 = 5
 c_order_vm_price#437: aux_hard85 = 1 -> PriceProv5 = 4576
 c_order_vm_cpu#438: aux_hard85 = 1 -> ProcProv5 = 32
 c_order_vm_memory#439: aux_hard85 = 1 -> MemProv5 = 244000
 c_order_vm_storage#440: aux_hard85 = 1 -> StorageProv5 = 4000
 lc442: aux_hard86 = 1 <-> vmType5 = 6
 c_order_vm_price#442: aux_hard86 = 1 -> PriceProv5 = 1373
 c_order_vm_cpu#443: aux_hard86 = 1 -> ProcProv5 = 16
 c_order_vm_memory#444: aux_hard86 = 1 -> MemProv5 = 122000
 c_order_vm_storage#445: aux_hard86 = 1 -> StorageProv5 = 2000
 lc447: aux_hard87 = 1 <-> vmType5 = 7
 c_order_vm_price#447: aux_hard87 = 1 -> PriceProv5 = 1430
 c_order_vm_cpu#448: aux_hard87 = 1 -> ProcProv5 = 16
 c_order_vm_memory#449: aux_hard87 = 1 -> MemProv5 = 30000
 c_order_vm_storage#450: aux_hard87 = 1 -> StorageProv5 = 2000
 lc452: aux_hard88 = 1 <-> vmType5 = 8
 c_order_vm_price#452: aux_hard88 = 1 -> PriceProv5 = 5400
 c_order_vm_cpu#453: aux_hard88 = 1 -> ProcProv5 = 17
 c_order_vm_memory#454: aux_hard88 = 1 -> MemProv5 = 117000
 c_order_vm_storage#455: aux_hard88 = 1 -> StorageProv5 = 24000
 lc457: aux_hard89 = 1 <-> vmType5 = 9
 c_order_vm_price#457: aux_hard89 = 1 -> PriceProv5 = 3079
 c_order_vm_cpu#458: aux_hard89 = 1 -> ProcProv5 = 16
 c_order_vm_memory#459: aux_hard89 = 1 -> MemProv5 = 122000
 c_order_vm_storage#460: aux_hard89 = 1 -> StorageProv5 = 1000
 lc462: aux_hard90 = 1 <-> vmType5 = 10
 c_order_vm_price#462: aux_hard90 = 1 -> PriceProv5 = 1470
 c_order_vm_cpu#463: aux_hard90 = 1 -> ProcProv5 = 8
 c_order_vm_memory#464: aux_hard90 = 1 -> MemProv5 = 61000
 c_order_vm_storage#465: aux_hard90 = 1 -> StorageProv5 = 6000
 lc467: aux_hard91 = 1 <-> vmType5 = 11
 c_order_vm_price#467: aux_hard91 = 1 -> PriceProv5 = 1301
 c_order_vm_cpu#468: aux_hard91 = 1 -> ProcProv5 = 8
 c_order_vm_memory#469: aux_hard91 = 1 -> MemProv5 = 68400
 c_order_vm_storage#470: aux_hard91 = 1 -> StorageProv5 = 2000
 lc472: aux_hard92 = 1 <-> vmType5 = 12
 c_order_vm_price#472: aux_hard92 = 1 -> PriceProv5 = 1288
 c_order_vm_cpu#473: aux_hard92 = 1 -> ProcProv5 = 8
 c_order_vm_memory#474: aux_hard92 = 1 -> MemProv5 = 68400
 c_order_vm_storage#475: aux_hard92 = 1 -> StorageProv5 = 2000
 lc477: aux_hard93 = 1 <-> vmType5 = 13
 c_order_vm_price#477: aux_hard93 = 1 -> PriceProv5 = 402
 c_order_vm_cpu#478: aux_hard93 = 1 -> ProcProv5 = 4
 c_order_vm_memory#479: aux_hard93 = 1 -> MemProv5 = 15000
 c_order_vm_storage#480: aux_hard93 = 1 -> StorageProv5 = 2000
 lc482: aux_hard94 = 1 <-> vmType5 = 14
 c_order_vm_price#482: aux_hard94 = 1 -> PriceProv5 = 827
 c_order_vm_cpu#483: aux_hard94 = 1 -> ProcProv5 = 4
 c_order_vm_memory#484: aux_hard94 = 1 -> MemProv5 = 30500
 c_order_vm_storage#485: aux_hard94 = 1 -> StorageProv5 = 3000
 lc487: aux_hard95 = 1 <-> vmType5 = 15
 c_order_vm_price#487: aux_hard95 = 1 -> PriceProv5 = 379
 c_order_vm_cpu#488: aux_hard95 = 1 -> ProcProv5 = 4
 c_order_vm_memory#489: aux_hard95 = 1 -> MemProv5 = 30500
 c_order_vm_storage#490: aux_hard95 = 1 -> StorageProv5 = 1000
 lc492: aux_hard96 = 1 <-> vmType5 = 16
 c_order_vm_price#492: aux_hard96 = 1 -> PriceProv5 = 146
 c_order_vm_cpu#493: aux_hard96 = 1 -> ProcProv5 = 2
 c_order_vm_memory#494: aux_hard96 = 1 -> MemProv5 = 7500
 c_order_vm_storage#495: aux_hard96 = 1 -> StorageProv5 = 1000
 lc497: aux_hard97 = 1 <-> vmType5 = 17
 c_order_vm_price#497: aux_hard97 = 1 -> PriceProv5 = 128
 c_order_vm_cpu#498: aux_hard97 = 1 -> ProcProv5 = 2
 c_order_vm_memory#499: aux_hard97 = 1 -> MemProv5 = 3750
 c_order_vm_storage#500: aux_hard97 = 1 -> StorageProv5 = 2000
 lc502: aux_hard98 = 1 <-> vmType5 = 18
 c_order_vm_price#502: aux_hard98 = 1 -> PriceProv5 = 58
 c_order_vm_cpu#503: aux_hard98 = 1 -> ProcProv5 = 1
 c_order_vm_memory#504: aux_hard98 = 1 -> MemProv5 = 1700
 c_order_vm_storage#505: aux_hard98 = 1 -> StorageProv5 = 1000
 lc507: aux_hard99 = 1 <-> vmType5 = 19
 c_order_vm_price#507: aux_hard99 = 1 -> PriceProv5 = 93
 c_order_vm_cpu#508: aux_hard99 = 1 -> ProcProv5 = 1
 c_order_vm_memory#509: aux_hard99 = 1 -> MemProv5 = 3750
 c_order_vm_storage#510: aux_hard99 = 1 -> StorageProv5 = 1000
 lc512: aux_hard100 = 1 <-> vmType5 = 20
 c_order_vm_price#512: aux_hard100 = 1 -> PriceProv5 = 98
 c_order_vm_cpu#513: aux_hard100 = 1 -> ProcProv5 = 1
 c_order_vm_memory#514: aux_hard100 = 1 -> MemProv5 = 3750
 c_order_vm_storage#515: aux_hard100 = 1 -> StorageProv5 = 1000
 lc517: vm5 = 1 -> vmType5 >= 1

Bounds
 0 <= vm1 <= 1
 0 <= vm2 <= 1
 0 <= vm3 <= 1
 0 <= vm4 <= 1
 0 <= vm5 <= 1
 0 <= C1_VM1 <= 1
 0 <= C1_VM2 <= 1
 0 <= C1_VM3 <= 1
 0 <= C1_VM4 <= 1
 0 <= C1_VM5 <= 1
 0 <= C2_VM1 <= 1
 0 <= C2_VM2 <= 1
 0 <= C2_VM3 <= 1
 0 <= C2_VM4 <= 1
 0 <= C2_VM5 <= 1
 0 <= C3_VM1 <= 1
 0 <= C3_VM2 <= 1
 0 <= C3_VM3 <= 1
 0 <= C3_VM4 <= 1
 0 <= C3_VM5 <= 1
 0 <= C4_VM1 <= 1
 0 <= C4_VM2 <= 1
 0 <= C4_VM3 <= 1
 0 <= C4_VM4 <= 1
 0 <= C4_VM5 <= 1
 0 <= C5_VM1 <= 1
 0 <= C5_VM2 <= 1
 0 <= C5_VM3 <= 1
 0 <= C5_VM4 <= 1
 0 <= C5_VM5 <= 1
       vmType1 <= 20
       vmType2 <= 20
       vmType3 <= 20
       vmType4 <= 20
       vmType5 <= 20
 1 <= ProcProv1 <= 64
 1 <= ProcProv2 <= 64
 1 <= ProcProv3 <= 64
 1 <= ProcProv4 <= 64
 1 <= ProcProv5 <= 64
 1700 <= MemProv1 <= 976000
 1700 <= MemProv2 <= 976000
 1700 <= MemProv3 <= 976000
 1700 <= MemProv4 <= 976000
 1700 <= MemProv5 <= 976000
 1000 <= StorageProv1 <= 24000
 1000 <= StorageProv2 <= 24000
 1000 <= StorageProv3 <= 24000
 1000 <= StorageProv4 <= 24000
 1000 <= StorageProv5 <= 24000
       PriceProv1 <= 16000
       PriceProv2 <= 16000
       PriceProv3 <= 16000
       PriceProv4 <= 16000
       PriceProv5 <= 16000
 0 <= vmload_VM3_combined <= 1
 0 <= aux_hard1 <= 1
 0 <= aux_hard2 <= 1
 0 <= aux_hard3 <= 1
 0 <= aux_hard4 <= 1
 0 <= aux_hard5 <= 1
 0 <= aux_hard6 <= 1
 0 <= aux_hard7 <= 1
 0 <= aux_hard8 <= 1
 0 <= aux_hard9 <= 1
 0 <= aux_hard10 <= 1
 0 <= aux_hard11 <= 1
 0 <= aux_hard12 <= 1
 0 <= aux_hard13 <= 1
 0 <= aux_hard14 <= 1
 0 <= aux_hard15 <= 1
 0 <= aux_hard16 <= 1
 0 <= aux_hard17 <= 1
 0 <= aux_hard18 <= 1
 0 <= aux_hard19 <= 1
 0 <= aux_hard20 <= 1
 0 <= aux_hard21 <= 1
 0 <= aux_hard22 <= 1
 0 <= aux_hard23 <= 1
 0 <= aux_hard24 <= 1
 0 <= aux_hard25 <= 1
 0 <= aux_hard26 <= 1
 0 <= aux_hard27 <= 1
 0 <= aux_hard28 <= 1
 0 <= aux_hard29 <= 1
 0 <= aux_hard30 <= 1
 0 <= aux_hard31 <= 1
 0 <= aux_hard32 <= 1
 0 <= aux_hard33 <= 1
 0 <= aux_hard34 <= 1
 0 <= aux_hard35 <= 1
 0 <= aux_hard36 <= 1
 0 <= aux_hard37 <= 1
 0 <= aux_hard38 <= 1
 0 <= aux_hard39 <= 1
 0 <= aux_hard40 <= 1
 0 <= aux_hard41 <= 1
 0 <= aux_hard42 <= 1
 0 <= aux_hard43 <= 1
 0 <= aux_hard44 <= 1
 0 <= aux_hard45 <= 1
 0 <= aux_hard46 <= 1
 0 <= aux_hard47 <= 1
 0 <= aux_hard48 <= 1
 0 <= aux_hard49 <= 1
 0 <= aux_hard50 <= 1
 0 <= aux_hard51 <= 1
 0 <= aux_hard52 <= 1
 0 <= aux_hard53 <= 1
 0 <= aux_hard54 <= 1
 0 <= aux_hard55 <= 1
 0 <= aux_hard56 <= 1
 0 <= aux_hard57 <= 1
 0 <= aux_hard58 <= 1
 0 <= aux_hard59 <= 1
 0 <= aux_hard60 <= 1
 0 <= aux_hard61 <= 1
 0 <= aux_hard62 <= 1
 0 <= aux_hard63 <= 1
 0 <= aux_hard64 <= 1
 0 <= aux_hard65 <= 1
 0 <= aux_hard66 <= 1
 0 <= aux_hard67 <= 1
 0 <= aux_hard68 <= 1
 0 <= aux_hard69 <= 1
 0 <= aux_hard70 <= 1
 0 <= aux_hard71 <= 1
 0 <= aux_hard72 <= 1
 0 <= aux_hard73 <= 1
 0 <= aux_hard74 <= 1
 0 <= aux_hard75 <= 1
 0 <= aux_hard76 <= 1
 0 <= aux_hard77 <= 1
 0 <= aux_hard78 <= 1
 0 <= aux_hard79 <= 1
 0 <= aux_hard80 <= 1
 0 <= aux_hard81 <= 1
 0 <= aux_hard82 <= 1
 0 <= aux_hard83 <= 1
 0 <= aux_hard84 <= 1
 0 <= aux_hard85 <= 1
 0 <= aux_hard86 <= 1
 0 <= aux_hard87 <= 1
 0 <= aux_hard88 <= 1
 0 <= aux_hard89 <= 1
 0 <= aux_hard90 <= 1
 0 <= aux_hard91 <= 1
 0 <= aux_hard92 <= 1
 0 <= aux_hard93 <= 1
 0 <= aux_hard94 <= 1
 0 <= aux_hard95 <= 1
 0 <= aux_hard96 <= 1
 0 <= aux_hard97 <= 1
 0 <= aux_hard98 <= 1
 0 <= aux_hard99 <= 1
 0 <= aux_hard100 <= 1

Binaries
 vm1 vm2 vm3 vm4 vm5 C1_VM1 C1_VM2 C1_VM3 C1_VM4 C1_VM5 C2_VM1 C2_VM2 C2_VM3
 C2_VM4 C2_VM5 C3_VM1 C3_VM2 C3_VM3 C3_VM4 C3_VM5 C4_VM1 C4_VM2 C4_VM3 C4_VM4
 C4_VM5 C5_VM1 C5_VM2 C5_VM3 C5_VM4 C5_VM5 vmload_VM3_combined aux_hard1
 aux_hard2 aux_hard3 aux_hard4 aux_hard5 aux_hard6 aux_hard7 aux_hard8 aux_hard9
 aux_hard10 aux_hard11 aux_hard12 aux_hard13 aux_hard14 aux_hard15 aux_hard16
 aux_hard17 aux_hard18 aux_hard19 aux_hard20 aux_hard21 aux_hard22 aux_hard23
 aux_hard24 aux_hard25 aux_hard26 aux_hard27 aux_hard28 aux_hard29 aux_hard30
 aux_hard31 aux_hard32 aux_hard33 aux_hard34 aux_hard35 aux_hard36 aux_hard37
 aux_hard38 aux_hard39 aux_hard40 aux_hard41 aux_hard42 aux_hard43 aux_hard44
 aux_hard45 aux_hard46 aux_hard47 aux_hard48 aux_hard49 aux_hard50 aux_hard51
 aux_hard52 aux_hard53 aux_hard54 aux_hard55 aux_hard56 aux_hard57 aux_hard58
 aux_hard59 aux_hard60 aux_hard61 aux_hard62 aux_hard63 aux_hard64 aux_hard65
 aux_hard66 aux_hard67 aux_hard68 aux_hard69 aux_hard70 aux_hard71 aux_hard72
 aux_hard73 aux_hard74 aux_hard75 aux_hard76 aux_hard77 aux_hard78 aux_hard79
 aux_hard80 aux_hard81 aux_hard82 aux_hard83 aux_hard84 aux_hard85 aux_hard86
 aux_hard87 aux_hard88 aux_hard89 aux_hard90 aux_hard91 aux_hard92 aux_hard93
 aux_hard94 aux_hard95 aux_hard96 aux_hard97 aux_hard98 aux_hard99 aux_hard100

Generals
 vmType1 vmType2 vmType3 vmType4 vmType5 ProcProv1 ProcProv2 ProcProv3 ProcProv4
 ProcProv5 MemProv1 MemProv2 MemProv3 MemProv4 MemProv5 StorageProv1
 StorageProv2 StorageProv3 StorageProv4 StorageProv5 PriceProv1 PriceProv2
 PriceProv3 PriceProv4 PriceProv5
End
